2062854
3 2 14476
2 1 106843
1 7 35813
7 9 126907
9 12 50022
12 6 255761
6 20 207524
20 11 34793
11 5 43367
5 10 161269
10 16 21151
16 4 223221
4 19 238490
19 15 105167
15 8 67784
8 14 61570
14 18 103707
18 13 156598
13 17 27808
17 3 20583
